(declare-const delta_j2 Int)
(declare-const delta_i Int)
(declare-const delta_j1___0 Int)
(assert (exists
         ((|j1___0'?1| Int) (|i'?2| Int) (|S1,0?3| Real) (|j2'?4| Int)
            (KSUM1?5 Int) (|K1,0?6| Int) (K?7 Int) (|j2'?8| Int) (|i'?9| Int)
            (j2?10 Int) (j1___0?11 Int) (n?12 Int) (i?13 Int) (m?14 Int))
         (and (<= (- j1___0?11) 0) (<= (- i?13) 0)
                (< (+ (- m?14) j1___0?11) 0) (<= (- K?7) 0)
                (<= (- |K1,0?6|) 0) (= (+ |K1,0?6| (- K?7)) 0)
                (<= (+ KSUM1?5 (- K?7)) 0)
                (= (+ (- |S1,0?3|) |j2'?4| (- |K1,0?6|)) 0)
                (= (+ (- KSUM1?5) |K1,0?6|) 0)
                (= (+ |S1,0?3| (- j1___0?11)) 0)
                (or (and (= K?7 0) (= (+ (- |j2'?4|) j1___0?11) 0)
                           (= (+ (- |i'?2|) i?13) 0))
                      (and (<= (+ (- K?7) 1) 0)
                             (<= (+ (- m?14) j1___0?11 1) 0) (<= (- i?13) 0)
                             (<= (- j1___0?11) 0) (<= (+ |j2'?4| (- m?14)) 0)
                             (<= (+ n?12 (- |i'?2|)) 0) (<= (- |i'?2|) 0)
                             (<= (+ (- |j2'?4|) 1) 0)))
                (= (+ |j2'?4| (- K?7) (- j1___0?11)) 0) (<= (- K?7) 0)
                (<= (- |j2'?4|) 0) (<= (- |i'?2|) 0) (< (- m?14) 0)
                (<= (+ (- |j2'?4|) m?14) 0) (= (+ |j2'?8| (- |j2'?4|)) 0)
                (= (+ |j1___0'?1| (- j1___0?11) -1) 0)
                (= (+ |i'?9| (- |i'?2|)) 0) (= delta_i (+ |i'?9| (- i?13)))
                (= delta_j1___0 (+ |j1___0'?1| (- j1___0?11)))
                (= delta_j2 (+ |j2'?8| (- j2?10))))))
(check-sat)
